NAME : ST69A.764.tour
COMMENT : Cost = 0_764
COMMENT : Found by LKH [Keld Helsgaun] Sun Sep 17 16:52:40 2017
TYPE : TOUR
DIMENSION : 69
TOUR_SECTION
1
35
13
28
69
30
68
37
58
62
56
15
24
19
7
2
4
18
41
40
42
21
32
47
11
63
64
50
55
66
53
61
38
44
45
26
39
60
9
67
43
29
20
14
27
48
54
25
8
3
31
6
17
33
12
59
51
10
49
5
52
65
22
34
23
16
36
57
46
-1
EOF
